s td 66 7 72
b 1 1 2 13
b 2 11 12 24
b 3 49 61 62
b 4 60 71 72
b 5 2 3 13 14
b 6 10 11 23 24
b 7 3 4 16 29 42 55 68
b 8 4 5 16 29 42 55 68
b 9 5 16 18 29 42 55 68
b 10 5 7 18 29 42 55 68
b 11 5 6 7 18
b 12 7 18 29 31 42 55 68
b 13 7 18 20 31 42 55 68
b 14 7 9 20 31 42 55 68
b 15 7 8 9 20
b 16 9 20 31 42 44 55 68
b 17 9 20 31 44 55 57 68
b 18 9 20 31 33 44 57 68
b 19 9 20 33 44 46 57 68
b 20 9 20 22 33 46 57 68
b 21 9 22 33 35 46 57 68
b 22 9 22 24 35 46 57 68
b 23 9 22 23 24 35
b 24 9 10 22 23 24
b 25 24 35 46 57 68 70
b 26 24 35 46 57 59 70
b 27 24 35 46 48 59 70
b 28 24 35 36 48
b 29 35 46 47 48 59
b 30 48 59 70 71
b 31 46 57 58 59 70
b 32 57 68 69 70
b 33 22 33 34 35 46
b 34 9 20 21 22 33
b 35 33 44 45 46 57
b 36 20 31 32 33 44
b 37 44 55 56 57 68
b 38 31 42 43 44 55
b 39 7 18 19 20 31
b 40 18 29 30 31 42
b 41 5 16 17 18 29
b 42 3 16 29 42 55 66 68
b 43 3 16 29 42 53 55 66
b 44 3 16 29 42 53 64 66
b 45 3 16 29 40 42 53 64
b 46 3 16 29 40 51 53 64
b 47 3 16 27 29 40 51 64
b 48 3 16 27 38 40 51 64
b 49 3 16 27 37 38 51 64
b 50 3 14 16 27 37 38
b 51 3 14 26 27 37 38
b 52 3 13 14 26 37
b 53 13 25 26 37
b 54 3 14 15 16 27
b 55 37 38 51 62 64
b 56 37 38 50 51 62
b 57 51 62 63 64
b 58 27 38 39 40 51
b 59 16 27 28 29 40
b 60 40 51 52 53 64
b 61 29 40 41 42 53
b 62 53 64 65 66
b 63 42 53 54 55 66
b 64 55 66 67 68
b 65 37 49 50 62
b 66 48 59 60 71
1 5
2 6
3 65
4 66
5 52
6 24
7 8
7 42
8 9
9 10
9 41
10 11
10 12
12 13
12 40
13 14
13 39
14 15
14 16
16 17
16 38
17 18
17 37
18 19
18 36
19 20
19 35
20 21
20 34
21 22
21 33
22 23
22 25
23 24
25 26
25 32
26 27
26 31
27 28
27 29
27 30
30 66
42 43
42 64
43 44
43 63
44 45
44 62
45 46
45 61
46 47
46 60
47 48
47 59
48 49
48 58
49 50
49 55
50 51
50 54
51 52
52 53
55 56
55 57
56 65
